0 7831922
2 7827490
3 7803455
7 7718965
9 7714022
12 7700893
14 7690996
15 7637423
20 7636046
21 7628755
23 7619769
24 7590045
26 7587696
27 7573266
29 7534747
34 7531614
35 7530927
37 7526840
48 7487448
49 7485920
53 7448896
57 7445497
62 7444519
65 7431557
77 7427937
91 7354265
93 7354117
98 7351842
109 7344564
125 7330641
127 7296485
136 7289881
149 7257641
155 7257272
156 7256344
170 7248051
175 7247932
178 7245785
180 7243771
203 7243469
208 7213555
210 7213485
222 7212698
232 7211950
235 7209589
241 7209456
273 7208623
279 7197330
281 7191363
300 7190033
307 7189064
375 7187626
455 7176524
495 7176481
509 7176446
540 7175458
583 7167060
679 7166597
680 7166419
729 7165488
786 7153641
847 7152365
885 7148035
920 7147984
957 7147179
1024 7146955
1045 7146948
1081 7146934
1095 7145977
1103 7143429
1140 7143325
1294 7142884
1405 7142848
1419 7142690
1453 7142607
1636 7142282
1839 7142157
2054 7142154
